objective value:                          -207240.304
t_x1347                                             1 	(obj:-62.625)
t_x1348                                             1 	(obj:-62.625)
t_x2073                                             1 	(obj:29.125)
t_x2074                                             1 	(obj:29.125)
t_x2077                                             1 	(obj:29.125)
t_x2078                                             1 	(obj:29.125)
t_x4259                                             1 	(obj:-12.625)
t_x4260                                             1 	(obj:-12.625)
t_x4291                                             1 	(obj:-996.5)
t_x4292                                             1 	(obj:-996.5)
t_x4985                                             1 	(obj:79.125)
t_x4986                                             1 	(obj:79.125)
t_x4989                                             1 	(obj:79.125)
t_x4990                                             1 	(obj:79.125)
t_x5023                                             1 	(obj:158.625)
t_x5024                                             1 	(obj:158.625)
t_x7897                                             1 	(obj:79.125)
t_x7898                                             1 	(obj:79.125)
t_x7899                                             1 	(obj:79.125)
t_x7900                                             1 	(obj:79.125)
t_x7901                                             1 	(obj:79.125)
t_x7902                                             1 	(obj:79.125)
t_x7917                                             1 	(obj:91.0625)
t_x7918                                             1 	(obj:91.0625)
t_x8679                                             1 	(obj:129.706)
t_x8680                                             1 	(obj:129.706)
t_x10809                                            1 	(obj:29.125)
t_x10810                                            1 	(obj:29.125)
t_x10811                                            1 	(obj:29.125)
t_x10812                                            1 	(obj:29.125)
t_x10813                                            1 	(obj:29.125)
t_x10814                                            1 	(obj:29.125)
t_x10829                                            1 	(obj:41.0625)
t_x10830                                            1 	(obj:41.0625)
t_x11591                                            1 	(obj:79.706)
t_x11592                                            1 	(obj:79.706)
t_x11735                                            1 	(obj:-1179.6625)
t_x11736                                            1 	(obj:-1179.6625)
t_x11737                                            1 	(obj:-1179.6625)
t_x11738                                            1 	(obj:-1179.6625)
t_x11739                                            1 	(obj:-1179.6625)
t_x11740                                            1 	(obj:-1179.6625)
t_x12461                                            1 	(obj:-1027.9375)
t_x12602                                            1 	(obj:-1012)
t_x14647                                            1 	(obj:-1229.6625)
t_x14648                                            1 	(obj:-1229.6625)
t_x14649                                            1 	(obj:-1229.6625)
t_x14650                                            1 	(obj:-1229.6625)
t_x14651                                            1 	(obj:-1229.6625)
t_x14652                                            1 	(obj:-1229.6625)
t_x15373                                            1 	(obj:-1077.9375)
t_x15514                                            1 	(obj:-1062)
t_x17586                                            1 	(obj:-1579.5875)
t_x17599                                            1 	(obj:-2137.6125)
t_x17603                                            1 	(obj:-2137.6125)
t_x17604                                            1 	(obj:-2137.6125)
t_x17605                                            1 	(obj:-2137.6125)
t_x17606                                            1 	(obj:-2137.6125)
t_x17797                                            1 	(obj:-1715.1625)
t_x17812                                            1 	(obj:-1682.65)
t_x19610                                            1 	(obj:67.51875)
t_x19623                                            1 	(obj:77.7)
t_x20498                                            1 	(obj:-1629.5875)
t_x20511                                            1 	(obj:-2187.6125)
t_x20515                                            1 	(obj:-2187.6125)
t_x20516                                            1 	(obj:-2187.6125)
t_x20517                                            1 	(obj:-2187.6125)
t_x20518                                            1 	(obj:-2187.6125)
t_x20709                                            1 	(obj:-1765.1625)
t_x20724                                            1 	(obj:-1732.65)
t_x22522                                            1 	(obj:17.51875)
t_x22535                                            1 	(obj:27.7)
t_x23341                                            1 	(obj:-1467.8125)
t_x23342                                            1 	(obj:-1467.8125)
t_x23437                                            1 	(obj:-2298.05)
t_x23438                                            1 	(obj:-2298.05)
t_x23443                                            1 	(obj:-2298.05)
t_x23444                                            1 	(obj:-2298.05)
t_x24169                                            1 	(obj:-2014.75)
t_x24170                                            1 	(obj:-2014.75)
t_x26253                                            1 	(obj:-1517.8125)
t_x26254                                            1 	(obj:-1517.8125)
t_x26349                                            1 	(obj:-2348.05)
t_x26350                                            1 	(obj:-2348.05)
t_x26355                                            1 	(obj:-2348.05)
t_x26356                                            1 	(obj:-2348.05)
t_x27081                                            1 	(obj:-2064.75)
t_x27082                                            1 	(obj:-2064.75)
t_x29157                                            1 	(obj:-2079.8125)
t_x29158                                            1 	(obj:-2079.8125)
t_x29281                                            1 	(obj:-3058.5875)
t_x29282                                            1 	(obj:-3058.5875)
t_x31288                                            1 	(obj:122.09375)
t_x31301                                            1 	(obj:123.234375)
t_x31374                                            1 	(obj:122.98)
t_x31387                                            1 	(obj:123.119)
t_x32069                                            1 	(obj:-2129.8125)
t_x32070                                            1 	(obj:-2129.8125)
t_x32193                                            1 	(obj:-3108.5875)
t_x32194                                            1 	(obj:-3108.5875)
t_x34200                                            1 	(obj:72.09375)
t_x34213                                            1 	(obj:73.234375)
t_x34286                                            1 	(obj:72.98)
t_x34299                                            1 	(obj:73.119)
t_x35427                                            1 	(obj:-501.15)
t_x35442                                            1 	(obj:-463.9625)
t_x36055                                            1 	(obj:-971.875)
t_x36056                                            1 	(obj:-971.875)
t_x36066                                            1 	(obj:-894.4375)
t_x36079                                            1 	(obj:-858.4375)
t_x36096                                            1 	(obj:-796.9375)
t_x36109                                            1 	(obj:-688.1875)
t_x36130                                            1 	(obj:-510.325)
t_x36143                                            1 	(obj:-546.94375)
t_x38339                                            1 	(obj:-551.15)
t_x38354                                            1 	(obj:-513.9625)
t_x38967                                            1 	(obj:-1021.875)
t_x38968                                            1 	(obj:-1021.875)
t_x38978                                            1 	(obj:-944.4375)
t_x38991                                            1 	(obj:-908.4375)
t_x39008                                            1 	(obj:-846.9375)
t_x39021                                            1 	(obj:-738.1875)
t_x39042                                            1 	(obj:-560.325)
t_x39055                                            1 	(obj:-596.94375)
t_x41585                                            1 	(obj:-1027.9375)
t_x41586                                            1 	(obj:-1027.9375)
t_x41587                                            1 	(obj:-1027.9375)
t_x41588                                            1 	(obj:-1027.9375)
t_x41707                                            1 	(obj:-979)
t_x41708                                            1 	(obj:-979)
t_x41744                                            1 	(obj:-110.725)
t_x41757                                            1 	(obj:-144.64375)
t_x41794                                            1 	(obj:-535)
t_x41807                                            1 	(obj:-578.6875)
t_x44497                                            1 	(obj:-1077.9375)
t_x44498                                            1 	(obj:-1077.9375)
t_x44499                                            1 	(obj:-1077.9375)
t_x44500                                            1 	(obj:-1077.9375)
t_x44619                                            1 	(obj:-1029)
t_x44620                                            1 	(obj:-1029)
t_x44656                                            1 	(obj:-160.725)
t_x44669                                            1 	(obj:-194.64375)
t_x44706                                            1 	(obj:-585)
t_x44719                                            1 	(obj:-628.6875)
t_x46593                                            1 	(obj:-2185.075)
t_x46608                                            1 	(obj:-4255.25)
t_x46751                                            1 	(obj:-6117.175)
t_x46752                                            1 	(obj:-6117.175)
t_x46753                                            1 	(obj:-6117.175)
t_x46754                                            1 	(obj:-6117.175)
t_x47478                                            1 	(obj:-5371.625)
t_x47491                                            1 	(obj:-1881.5)
t_x50082                                            1 	(obj:-1080.425)
t_x50095                                            1 	(obj:-1199.6375)
t_x50111                                            1 	(obj:-1445.925)
t_x50112                                            1 	(obj:-1445.925)
t_x50773                                            1 	(obj:-500.70625)
t_x50774                                            1 	(obj:-500.70625)
t_x50780                                            1 	(obj:-559.75)
t_x50793                                            1 	(obj:-986.875)
t_x51156                                            1 	(obj:113.4)
t_x51169                                            1 	(obj:115.47)
t_x52994                                            1 	(obj:-1130.425)
t_x53007                                            1 	(obj:-1249.6375)
t_x53023                                            1 	(obj:-1495.925)
t_x53024                                            1 	(obj:-1495.925)
t_x53685                                            1 	(obj:-550.70625)
t_x53686                                            1 	(obj:-550.70625)
t_x53692                                            1 	(obj:-609.75)
t_x53705                                            1 	(obj:-1036.875)
t_x54068                                            1 	(obj:63.4)
t_x54081                                            1 	(obj:65.47)
t_x55413                                            1 	(obj:-2359.325)
t_x55414                                            1 	(obj:-2359.325)
t_x55415                                            1 	(obj:-2359.325)
t_x55417                                            1 	(obj:-2359.325)
t_x55418                                            1 	(obj:-2359.325)
t_x55419                                            1 	(obj:-2359.325)
t_x55420                                            1 	(obj:-2359.325)
t_x55430                                            1 	(obj:-2310.025)
t_x56332                                            1 	(obj:-393.575)
t_x56345                                            1 	(obj:-445.2125)
t_x59329                                            1 	(obj:-492.625)
t_x59344                                            1 	(obj:-543.15625)
t_x60941                                            1 	(obj:155.55)
t_x60956                                            1 	(obj:156.584)
